24° run output:
{
    "Function": "euclidB300.tsp",
    "Problem dimension": [
        236,
        256,
        218,
        50,
        272,
        152,
        240,
        107,
        200,
        47,
        186,
        201,
        188,
        224,
        184,
        207,
        161,
        4,
        182,
        2,
        20,
        15,
        158,
        237,
        111,
        278,
        67,
        297,
        109,
        215,
        26,
        85,
        79,
        42,
        179,
        235,
        292,
        284,
        31,
        137,
        251,
        183,
        273,
        73,
        175,
        112,
        3,
        103,
        75,
        7,
        263,
        37,
        232,
        211,
        5,
        267,
        12,
        64,
        102,
        287,
        18,
        57,
        25,
        168,
        241,
        145,
        24,
        221,
        217,
        147,
        116,
        274,
        82,
        283,
        38,
        46,
        247,
        265,
        177,
        83,
        95,
        246,
        114,
        214,
        77,
        45,
        88,
        176,
        78,
        194,
        8,
        115,
        135,
        173,
        298,
        32,
        250,
        242,
        61,
        228,
        208,
        72,
        60,
        76,
        117,
        196,
        70,
        220,
        110,
        108,
        181,
        271,
        294,
        171,
        139,
        219,
        243,
        258,
        193,
        229,
        190,
        106,
        253,
        11,
        90,
        58,
        178,
        105,
        41,
        206,
        281,
        29,
        13,
        6,
        191,
        52,
        55,
        118,
        138,
        153,
        238,
        134,
        261,
        245,
        266,
        279,
        0,
        259,
        97,
        286,
        204,
        93,
        277,
        94,
        129,
        269,
        59,
        98,
        142,
        270,
        143,
        28,
        169,
        195,
        9,
        144,
        123,
        23,
        119,
        289,
        71,
        17,
        260,
        127,
        172,
        166,
        257,
        202,
        203,
        126,
        276,
        212,
        268,
        113,
        30,
        216,
        189,
        91,
        154,
        54,
        16,
        255,
        148,
        244,
        225,
        156,
        264,
        248,
        150,
        157,
        89,
        66,
        170,
        34,
        36,
        56,
        165,
        104,
        295,
        141,
        159,
        136,
        187,
        146,
        22,
        100,
        80,
        164,
        296,
        62,
        223,
        185,
        205,
        133,
        10,
        151,
        275,
        226,
        140,
        230,
        285,
        1,
        160,
        35,
        87,
        121,
        162,
        99,
        288,
        122,
        92,
        132,
        167,
        233,
        81,
        199,
        49,
        293,
        291,
        254,
        231,
        262,
        53,
        21,
        39,
        131,
        74,
        239,
        252,
        101,
        51,
        282,
        68,
        14,
        222,
        69,
        210,
        44,
        234,
        155,
        213,
        120,
        63,
        48,
        249,
        280,
        227,
        27,
        125,
        124,
        290,
        149,
        130,
        65,
        163,
        299,
        33,
        197,
        180,
        96,
        174,
        19,
        209,
        86,
        192,
        40,
        43,
        128,
        198,
        84
    ],
    "Global Optimum": 0,
    "Algorithm": "Genetic algorithm",
    "Parameters": {
        "population": 30,
        "offspring": 30,
        "mutation probability": 0.0033333333333333335,
        "crossover probability": 0.9
    },
    "Fitness": 314208,
    "Solution": [
        236,
        256,
        218,
        50,
        272,
        152,
        240,
        107,
        200,
        47,
        186,
        201,
        188,
        224,
        184,
        207,
        161,
        4,
        182,
        2,
        20,
        15,
        158,
        237,
        111,
        278,
        67,
        297,
        109,
        215,
        26,
        85,
        79,
        42,
        179,
        235,
        292,
        284,
        31,
        137,
        251,
        183,
        273,
        73,
        175,
        112,
        3,
        103,
        75,
        7,
        263,
        37,
        232,
        211,
        5,
        267,
        12,
        64,
        102,
        287,
        18,
        57,
        25,
        168,
        241,
        145,
        24,
        221,
        217,
        147,
        116,
        274,
        82,
        283,
        38,
        46,
        247,
        265,
        177,
        83,
        95,
        246,
        114,
        214,
        77,
        45,
        88,
        176,
        78,
        194,
        8,
        115,
        135,
        173,
        298,
        32,
        250,
        242,
        61,
        228,
        208,
        72,
        60,
        76,
        117,
        196,
        70,
        220,
        110,
        108,
        181,
        271,
        294,
        171,
        139,
        219,
        243,
        258,
        193,
        229,
        190,
        106,
        253,
        11,
        90,
        58,
        178,
        105,
        41,
        206,
        281,
        29,
        13,
        6,
        191,
        52,
        55,
        118,
        138,
        153,
        238,
        134,
        261,
        245,
        266,
        279,
        0,
        259,
        97,
        286,
        204,
        93,
        277,
        94,
        129,
        269,
        59,
        98,
        142,
        270,
        143,
        28,
        169,
        195,
        9,
        144,
        123,
        23,
        119,
        289,
        71,
        17,
        260,
        127,
        172,
        166,
        257,
        202,
        203,
        126,
        276,
        212,
        268,
        113,
        30,
        216,
        189,
        91,
        154,
        54,
        16,
        255,
        148,
        244,
        225,
        156,
        264,
        248,
        150,
        157,
        89,
        66,
        170,
        34,
        36,
        56,
        165,
        104,
        295,
        141,
        159,
        136,
        187,
        146,
        22,
        100,
        80,
        164,
        296,
        62,
        223,
        185,
        205,
        133,
        10,
        151,
        275,
        226,
        140,
        230,
        285,
        1,
        160,
        35,
        87,
        121,
        162,
        99,
        288,
        122,
        92,
        132,
        167,
        233,
        81,
        199,
        49,
        293,
        291,
        254,
        231,
        262,
        53,
        21,
        39,
        131,
        74,
        239,
        252,
        101,
        51,
        282,
        68,
        14,
        222,
        69,
        210,
        44,
        234,
        155,
        213,
        120,
        63,
        48,
        249,
        280,
        227,
        27,
        125,
        124,
        290,
        149,
        130,
        65,
        163,
        299,
        33,
        197,
        180,
        96,
        174,
        19,
        209,
        86,
        192,
        40,
        43,
        128,
        198,
        84
    ],
    "Nb of functions evaluations": 200010,
    "Computational time in seconds": 442.2195725440979,
    "Stopping criterion in evaluations": 200000
}